NAME : Undefined
TYPE : HCP TOUR
COMMENT : 100-node graph
DIMENSION : 100
EDGE_DATA_FORMAT : EDGE_LIST
EDGE_DATA_SECTION
28
17
76
75
15
87
95
78
77
29
7
55
34
2
30
67
38
9
6
33
45
66
99
63
73
31
5
91
71
14
59
20
8
40
12
22
47
74
43
92
32
79
21
90
13
64
68
49
42
24
89
10
54
69
3
46
65
4
56
57
96
37
81
23
94
44
97
36
100
19
62
88
41
60
25
86
83
35
51
26
85
52
82
18
98
61
39
50
84
16
80
1
58
53
70
11
48
27
93
72
-1
EOF
